DIMACS_lns/graph-1000-772.col
p edge 1000 1839
e 1 984
e 1 440
e 1 922
e 1 805
e 1 503
e 1 659
e 1 483
e 1 744
e 2 187
e 2 731
e 2 151
e 2 522
e 2 91
e 2 213
e 3 264
e 3 263
e 3 661
e 3 498
e 4 418
e 4 143
e 4 30
e 4 625
e 4 440
e 4 898
e 5 306
e 5 977
e 5 486
e 5 970
e 7 890
e 7 340
e 7 442
e 7 861
e 8 606
e 8 172
e 8 863
e 8 58
e 8 914
e 9 114
e 9 482
e 9 910
e 9 532
e 9 249
e 11 251
e 11 123
e 11 831
e 11 228
e 11 306
e 13 259
e 13 644
e 13 953
e 13 959
e 15 950
e 15 17
e 15 216
e 15 936
e 16 794
e 16 225
e 16 357
e 17 681
e 17 730
e 17 598
e 17 318
e 17 435
e 20 954
e 20 811
e 20 790
e 20 625
e 21 241
e 21 236
e 21 84
e 22 851
e 22 550
e 22 712
e 22 694
e 22 291
e 22 351
e 22 937
e 23 877
e 23 297
e 23 502
e 24 646
e 24 109
e 24 297
e 24 958
e 25 973
e 25 520
e 25 442
e 25 275
e 25 984
e 25 390
e 25 664
e 25 281
e 26 35
e 26 650
e 26 596
e 27 898
e 27 837
e 27 101
e 27 606
e 27 858
e 27 655
e 30 969
e 30 851
e 30 913
e 30 352
e 31 818
e 31 650
e 31 72
e 31 676
e 31 442
e 31 881
e 33 992
e 33 682
e 33 437
e 35 215
e 35 337
e 35 49
e 36 707
e 36 190
e 36 853
e 36 267
e 36 588
e 36 388
e 36 878
e 40 609
e 40 468
e 40 475
e 41 890
e 41 99
e 41 368
e 41 315
e 42 198
e 42 73
e 42 186
e 42 116
e 43 388
e 43 188
e 43 767
e 44 368
e 44 273
e 44 53
e 44 808
e 45 462
e 45 767
e 45 907
e 47 315
e 47 889
e 47 716
e 47 223
e 47 974
e 47 892
e 49 583
e 49 56
e 49 580
e 49 143
e 49 811
e 51 540
e 51 998
e 51 691
e 51 660
e 51 497
e 52 70
e 52 478
e 52 891
e 52 205
e 53 676
e 53 399
e 53 440
e 53 768
e 53 303
e 54 712
e 54 255
e 54 150
e 55 199
e 55 600
e 55 870
e 55 282
e 56 661
e 56 122
e 56 833
e 56 321
e 56 885
e 56 429
e 56 463
e 58 649
e 58 594
e 58 331
e 58 90
e 60 306
e 60 518
e 60 858
e 61 681
e 61 859
e 61 877
e 61 608
e 62 969
e 62 111
e 62 433
e 62 441
e 62 134
e 63 600
e 63 380
e 63 890
e 63 972
e 63 625
e 64 857
e 64 216
e 64 885
e 65 125
e 65 822
e 65 418
e 65 398
e 65 488
e 65 497
e 67 833
e 67 907
e 67 902
e 68 571
e 68 922
e 68 240
e 68 940
e 69 411
e 69 589
e 69 728
e 70 459
e 70 762
e 70 404
e 70 285
e 70 851
e 70 824
e 71 467
e 71 374
e 71 840
e 71 358
e 71 680
e 72 765
e 72 233
e 73 446
e 73 303
e 73 913
e 73 821
e 73 672
e 74 605
e 74 873
e 74 638
e 74 423
e 75 763
e 75 154
e 75 402
e 75 725
e 75 272
e 75 137
e 76 840
e 76 208
e 76 940
e 76 1000
e 76 279
e 77 900
e 77 391
e 77 388
e 77 485
e 77 108
e 78 866
e 78 450
e 78 744
e 78 182
e 78 774
e 78 508
e 79 288
e 79 224
e 79 590
e 79 293
e 81 568
e 81 408
e 81 130
e 81 805
e 81 243
e 82 822
e 82 618
e 82 824
e 82 793
e 82 98
e 82 891
e 84 227
e 84 970
e 84 475
e 85 765
e 85 271
e 85 919
e 85 402
e 85 560
e 87 527
e 87 819
e 87 161
e 87 282
e 87 453
e 87 1000
e 88 600
e 88 980
e 88 699
e 88 640
e 88 763
e 89 282
e 89 981
e 89 960
e 89 984
e 89 441
e 89 273
e 89 853
e 90 520
e 90 667
e 90 957
e 90 502
e 91 138
e 91 809
e 92 410
e 92 909
e 92 310
e 92 227
e 92 146
e 92 276
e 92 247
e 93 334
e 93 461
e 93 745
e 95 186
e 95 536
e 95 275
e 95 133
e 95 739
e 96 824
e 96 679
e 96 267
e 96 978
e 96 893
e 96 606
e 96 386
e 96 183
e 96 911
e 97 756
e 97 282
e 97 667
e 97 283
e 97 493
e 98 782
e 98 720
e 98 853
e 99 833
e 99 320
e 99 544
e 101 391
e 101 796
e 101 172
e 102 433
e 102 763
e 102 923
e 102 741
e 102 592
e 102 833
e 103 219
e 103 122
e 103 662
e 104 841
e 104 603
e 104 462
e 106 646
e 106 164
e 106 357
e 106 737
e 107 706
e 107 951
e 107 764
e 108 657
e 108 705
e 108 129
e 109 111
e 109 495
e 109 362
e 109 531
e 110 719
e 110 758
e 110 879
e 110 838
e 110 228
e 110 240
e 110 294
e 110 279
e 111 141
e 111 325
e 112 261
e 112 634
e 112 237
e 114 616
e 114 119
e 115 951
e 115 788
e 115 536
e 115 821
e 116 808
e 116 873
e 116 787
e 116 981
e 116 433
e 116 456
e 117 284
e 117 261
e 117 813
e 119 654
e 119 721
e 119 946
e 119 685
e 119 645
e 120 835
e 120 646
e 120 892
e 120 518
e 120 549
e 120 881
e 121 448
e 121 669
e 121 610
e 121 267
e 121 164
e 121 734
e 122 141
e 123 874
e 123 638
e 123 579
e 123 230
e 124 214
e 124 242
e 124 690
e 124 677
e 125 479
e 125 935
e 125 268
e 126 837
e 126 418
e 126 297
e 126 722
e 129 602
e 129 603
e 130 742
e 130 809
e 130 140
e 131 816
e 131 492
e 131 830
e 131 388
e 132 261
e 132 277
e 132 206
e 132 248
e 133 435
e 133 590
e 133 909
e 133 626
e 133 371
e 134 530
e 134 474
e 134 899
e 134 467
e 134 234
e 134 205
e 134 493
e 134 988
e 136 281
e 136 425
e 136 487
e 136 699
e 136 295
e 137 657
e 137 950
e 137 790
e 138 139
e 138 737
e 139 600
e 139 372
e 140 232
e 140 649
e 141 592
e 142 595
e 142 437
e 142 367
e 142 864
e 142 417
e 142 252
e 143 233
e 143 951
e 143 226
e 143 968
e 146 232
e 146 813
e 146 455
e 146 736
e 147 421
e 147 832
e 147 674
e 148 430
e 148 650
e 148 791
e 148 431
e 148 402
e 150 266
e 150 302
e 150 434
e 150 969
e 150 660
e 150 827
e 150 391
e 150 463
e 151 215
e 151 410
e 152 345
e 152 648
e 152 208
e 152 958
e 154 927
e 154 859
e 154 497
e 154 597
e 154 377
e 154 276
e 155 530
e 155 938
e 155 634
e 155 605
e 155 862
e 156 916
e 156 506
e 156 331
e 159 512
e 159 670
e 159 507
e 159 248
e 159 698
e 159 310
e 161 176
e 161 269
e 162 439
e 162 359
e 162 491
e 162 201
e 162 836
e 163 857
e 163 378
e 163 610
e 163 543
e 164 740
e 164 322
e 165 427
e 165 898
e 165 866
e 165 485
e 166 490
e 166 358
e 166 280
e 166 496
e 166 698
e 166 466
e 166 380
e 166 907
e 168 615
e 168 859
e 168 206
e 170 221
e 170 418
e 170 996
e 172 316
e 172 556
e 172 968
e 172 833
e 172 815
e 173 848
e 173 741
e 173 863
e 173 997
e 173 427
e 173 714
e 173 898
e 174 439
e 174 497
e 174 501
e 174 527
e 176 766
e 176 224
e 178 715
e 178 560
e 178 640
e 179 488
e 179 346
e 179 442
e 179 493
e 180 920
e 180 965
e 180 840
e 180 811
e 180 784
e 181 532
e 181 639
e 181 810
e 182 363
e 182 952
e 182 247
e 182 645
e 183 953
e 183 765
e 183 670
e 183 283
e 183 495
e 184 997
e 184 245
e 184 185
e 184 459
e 185 479
e 185 322
e 185 200
e 186 516
e 187 331
e 187 720
e 188 943
e 188 727
e 189 222
e 189 587
e 189 241
e 189 541
e 190 520
e 190 899
e 190 265
e 190 680
e 190 728
e 190 962
e 190 553
e 191 782
e 191 760
e 191 853
e 191 911
e 191 796
e 191 659
e 191 569
e 192 269
e 192 816
e 192 483
e 192 571
e 193 794
e 193 689
e 193 966
e 193 987
e 193 889
e 194 410
e 194 255
e 194 359
e 195 498
e 195 548
e 195 866
e 195 858
e 196 386
e 196 676
e 196 816
e 196 284
e 197 911
e 197 200
e 197 499
e 197 216
e 198 372
e 198 579
e 199 297
e 199 377
e 199 793
e 199 977
e 200 587
e 200 396
e 200 711
e 201 353
e 201 682
e 201 395
e 201 770
e 201 996
e 201 993
e 204 553
e 204 491
e 204 238
e 205 511
e 205 679
e 206 464
e 206 517
e 206 722
e 206 349
e 206 642
e 206 606
e 207 521
e 207 326
e 207 956
e 208 247
e 208 237
e 209 875
e 209 973
e 209 354
e 209 712
e 212 367
e 212 242
e 212 294
e 213 230
e 213 379
e 213 478
e 213 273
e 213 855
e 214 908
e 214 346
e 214 939
e 214 317
e 214 961
e 214 388
e 214 580
e 215 667
e 215 278
e 215 572
e 215 970
e 216 943
e 216 637
e 216 367
e 216 539
e 217 765
e 217 857
e 217 702
e 217 885
e 218 667
e 218 970
e 218 437
e 219 775
e 219 616
e 219 694
e 219 446
e 219 741
e 219 662
e 220 530
e 220 834
e 220 632
e 221 410
e 221 978
e 221 457
e 222 592
e 222 519
e 223 674
e 223 288
e 223 829
e 224 939
e 224 540
e 224 268
e 224 913
e 225 716
e 225 955
e 225 707
e 225 309
e 226 625
e 226 426
e 226 851
e 226 741
e 226 527
e 226 893
e 227 281
e 227 893
e 227 944
e 227 817
e 228 630
e 228 316
e 229 787
e 229 285
e 229 847
e 230 853
e 230 260
e 230 408
e 230 622
e 232 664
e 232 646
e 232 282
e 232 283
e 233 269
e 233 456
e 233 488
e 234 258
e 234 707
e 234 776
e 234 802
e 234 895
e 236 568
e 236 655
e 236 838
e 237 556
e 237 561
e 237 264
e 237 862
e 238 581
e 238 532
e 238 401
e 238 549
e 238 802
e 238 291
e 238 421
e 239 514
e 239 705
e 239 689
e 239 946
e 240 394
e 240 669
e 240 561
e 240 245
e 240 539
e 240 644
e 240 655
e 240 884
e 240 548
e 241 299
e 241 794
e 241 564
e 242 987
e 242 274
e 242 430
e 243 675
e 243 502
e 243 781
e 244 489
e 244 793
e 244 966
e 244 810
e 245 377
e 245 737
e 245 297
e 245 260
e 247 657
e 248 545
e 248 682
e 248 834
e 248 274
e 248 278
e 249 765
e 249 625
e 249 670
e 249 462
e 251 627
e 251 760
e 251 411
e 251 837
e 252 834
e 252 727
e 254 315
e 254 827
e 254 739
e 255 322
e 255 359
e 257 875
e 257 721
e 257 617
e 257 406
e 257 996
e 258 268
e 258 780
e 259 625
e 259 805
e 259 601
e 260 391
e 260 318
e 260 892
e 260 432
e 260 408
e 261 295
e 261 973
e 263 385
e 263 489
e 264 672
e 264 821
e 264 402
e 265 391
e 265 455
e 265 790
e 265 532
e 265 512
e 265 836
e 266 948
e 266 965
e 267 818
e 267 455
e 267 771
e 267 624
e 268 638
e 268 602
e 268 902
e 269 401
e 269 749
e 269 593
e 270 340
e 270 564
e 270 439
e 270 952
e 271 462
e 271 791
e 271 608
e 271 816
e 272 317
e 272 345
e 272 961
e 272 670
e 273 848
e 273 748
e 274 645
e 274 520
e 275 488
e 275 867
e 275 514
e 275 371
e 275 910
e 276 802
e 276 794
e 276 430
e 276 391
e 277 640
e 277 810
e 278 456
e 278 923
e 279 499
e 279 737
e 279 340
e 279 891
e 279 992
e 280 851
e 280 422
e 280 879
e 281 642
e 281 848
e 281 775
e 281 410
e 281 714
e 281 330
e 281 581
e 282 636
e 283 952
e 283 877
e 283 841
e 284 871
e 284 395
e 284 474
e 284 720
e 285 725
e 285 569
e 285 946
e 286 747
e 286 959
e 286 777
e 286 641
e 288 967
e 288 342
e 288 859
e 288 553
e 288 645
e 288 727
e 288 383
e 289 354
e 289 598
e 289 545
e 291 641
e 291 969
e 291 616
e 291 621
e 291 316
e 293 363
e 293 467
e 293 970
e 293 297
e 293 439
e 294 396
e 294 984
e 294 316
e 295 462
e 295 764
e 295 798
e 295 870
e 295 299
e 297 781
e 297 778
e 297 368
e 299 425
e 299 445
e 299 749
e 300 787
e 300 908
e 300 686
e 302 791
e 302 697
e 303 437
e 303 558
e 303 630
e 304 480
e 304 771
e 304 992
e 304 864
e 306 838
e 307 956
e 307 694
e 307 469
e 307 793
e 308 326
e 308 918
e 308 374
e 308 827
e 308 500
e 308 756
e 309 396
e 309 911
e 309 550
e 309 872
e 310 382
e 310 347
e 310 680
e 311 571
e 311 832
e 311 883
e 315 849
e 315 387
e 316 904
e 316 907
e 316 804
e 316 408
e 317 797
e 317 630
e 317 1000
e 317 861
e 317 597
e 317 430
e 317 985
e 318 988
e 318 772
e 318 605
e 318 477
e 320 447
e 320 558
e 321 487
e 321 975
e 321 875
e 321 866
e 321 832
e 322 459
e 323 674
e 323 535
e 323 495
e 325 767
e 325 954
e 326 970
e 326 536
e 327 443
e 327 942
e 327 368
e 327 649
e 327 784
e 327 916
e 330 590
e 330 653
e 330 782
e 330 401
e 331 775
e 331 486
e 331 919
e 331 926
e 334 833
e 334 462
e 336 809
e 336 950
e 336 900
e 336 853
e 336 435
e 336 393
e 336 576
e 336 658
e 337 421
e 337 689
e 340 341
e 340 740
e 341 573
e 341 813
e 341 644
e 341 816
e 342 895
e 342 825
e 342 734
e 344 362
e 344 819
e 344 855
e 345 696
e 345 974
e 345 754
e 346 541
e 346 709
e 346 614
e 346 815
e 347 837
e 347 697
e 347 850
e 348 364
e 348 871
e 348 557
e 348 455
e 349 459
e 349 849
e 349 467
e 350 404
e 350 549
e 350 782
e 350 462
e 351 490
e 351 444
e 352 883
e 352 996
e 352 836
e 352 556
e 353 459
e 353 858
e 354 580
e 354 621
e 354 840
e 354 553
e 354 976
e 357 771
e 357 926
e 358 705
e 358 399
e 358 598
e 359 401
e 359 645
e 360 427
e 360 774
e 360 959
e 360 950
e 360 471
e 362 598
e 362 624
e 362 775
e 363 778
e 364 455
e 364 838
e 364 520
e 367 781
e 367 861
e 367 628
e 368 707
e 368 534
e 368 668
e 368 749
e 371 430
e 371 831
e 371 676
e 372 943
e 372 801
e 372 863
e 372 383
e 372 380
e 373 777
e 373 433
e 373 496
e 374 747
e 374 853
e 374 837
e 374 743
e 374 649
e 377 378
e 377 734
e 377 1000
e 377 682
e 378 987
e 379 398
e 379 668
e 379 395
e 379 788
e 379 813
e 379 610
e 379 414
e 380 475
e 380 513
e 382 765
e 382 466
e 383 599
e 383 818
e 383 916
e 383 387
e 385 575
e 385 740
e 386 908
e 386 566
e 386 423
e 387 819
e 387 619
e 387 490
e 388 969
e 388 705
e 388 657
e 388 650
e 389 503
e 389 695
e 389 441
e 390 437
e 390 677
e 393 714
e 393 708
e 393 817
e 393 641
e 394 683
e 394 590
e 394 936
e 395 649
e 396 951
e 396 557
e 396 710
e 398 955
e 398 448
e 399 690
e 399 507
e 399 975
e 399 564
e 399 466
e 399 728
e 404 916
e 404 972
e 404 946
e 404 760
e 405 729
e 405 958
e 405 410
e 406 561
e 406 677
e 408 577
e 410 717
e 410 477
e 410 985
e 411 980
e 411 616
e 411 799
e 414 711
e 414 725
e 417 754
e 417 967
e 418 763
e 418 730
e 418 490
e 418 744
e 421 797
e 421 628
e 421 511
e 422 831
e 422 847
e 422 770
e 423 597
e 423 923
e 425 938
e 425 875
e 425 447
e 425 479
e 426 747
e 426 742
e 426 466
e 426 610
e 427 432
e 427 578
e 427 981
e 429 753
e 429 440
e 429 881
e 430 581
e 431 471
e 431 714
e 431 924
e 432 920
e 433 524
e 433 919
e 434 587
e 434 958
e 435 664
e 435 482
e 435 733
e 436 992
e 436 456
e 436 508
e 437 509
e 437 754
e 439 996
e 440 708
e 443 858
e 443 993
e 443 827
e 444 499
e 444 486
e 445 575
e 445 630
e 446 632
e 446 960
e 446 730
e 447 904
e 447 719
e 447 855
e 448 946
e 448 976
e 448 638
e 450 700
e 450 706
e 453 518
e 453 540
e 455 670
e 455 618
e 455 691
e 456 659
e 457 948
e 457 944
e 457 951
e 457 696
e 461 812
e 461 756
e 461 603
e 462 516
e 462 482
e 463 622
e 463 978
e 464 505
e 464 847
e 464 675
e 465 807
e 465 596
e 465 753
e 465 617
e 466 978
e 467 846
e 468 490
e 468 479
e 469 784
e 469 748
e 470 954
e 470 767
e 470 988
e 471 481
e 471 953
e 471 504
e 471 987
e 471 838
e 474 729
e 474 513
e 475 872
e 475 987
e 475 939
e 475 756
e 477 521
e 477 739
e 477 825
e 477 601
e 478 729
e 478 754
e 478 694
e 480 913
e 480 907
e 480 909
e 481 698
e 481 490
e 481 632
e 483 683
e 483 734
e 483 489
e 484 867
e 484 614
e 484 766
e 485 693
e 485 635
e 486 644
e 486 964
e 486 908
e 487 644
e 487 509
e 487 693
e 487 691
e 488 784
e 488 580
e 490 534
e 490 974
e 490 550
e 490 513
e 491 743
e 492 871
e 492 913
e 492 961
e 492 625
e 492 726
e 493 655
e 495 658
e 495 527
e 495 832
e 495 980
e 496 841
e 496 501
e 497 812
e 497 777
e 498 707
e 498 906
e 499 717
e 499 862
e 499 727
e 499 753
e 499 962
e 500 636
e 500 720
e 501 765
e 501 942
e 502 646
e 502 866
e 502 508
e 503 866
e 504 907
e 504 776
e 504 509
e 505 997
e 505 743
e 506 796
e 506 553
e 506 594
e 507 884
e 508 657
e 508 753
e 508 811
e 509 601
e 509 790
e 509 940
e 509 801
e 511 872
e 511 721
e 511 617
e 511 778
e 512 728
e 513 733
e 514 784
e 514 600
e 516 811
e 517 775
e 517 669
e 517 668
e 518 902
e 518 957
e 518 622
e 518 599
e 518 613
e 519 924
e 519 810
e 519 608
e 520 522
e 520 967
e 521 878
e 521 998
e 522 935
e 522 780
e 522 675
e 522 589
e 524 668
e 524 577
e 526 536
e 526 569
e 526 765
e 527 911
e 527 841
e 529 988
e 529 668
e 529 689
e 530 763
e 530 736
e 531 588
e 531 845
e 532 841
e 532 855
e 532 768
e 534 896
e 534 988
e 534 646
e 535 825
e 535 861
e 535 727
e 536 924
e 536 744
e 539 566
e 540 767
e 541 798
e 541 754
e 543 654
e 543 807
e 544 815
e 544 849
e 545 733
e 545 640
e 546 721
e 546 658
e 546 742
e 548 745
e 548 771
e 548 879
e 550 709
e 556 657
e 557 787
e 558 685
e 558 877
e 559 765
e 559 959
e 559 686
e 560 938
e 563 627
e 563 691
e 563 927
e 564 653
e 564 606
e 566 989
e 566 569
e 568 744
e 569 650
e 569 619
e 571 598
e 572 949
e 572 862
e 573 772
e 573 949
e 575 944
e 575 700
e 576 702
e 576 648
e 577 866
e 578 739
e 578 588
e 579 609
e 581 866
e 581 950
e 581 895
e 581 813
e 583 780
e 583 618
e 587 792
e 589 768
e 589 953
e 590 877
e 592 717
e 593 719
e 593 677
e 594 596
e 595 781
e 595 716
e 596 904
e 596 694
e 596 608
e 596 705
e 597 622
e 598 726
e 599 898
e 599 722
e 599 835
e 599 926
e 600 727
e 600 942
e 600 725
e 600 822
e 601 807
e 601 948
e 602 977
e 602 610
e 602 976
e 603 874
e 605 962
e 606 810
e 608 985
e 608 944
e 608 672
e 609 809
e 610 681
e 610 973
e 611 784
e 611 639
e 611 697
e 613 784
e 613 754
e 613 816
e 613 884
e 613 635
e 614 719
e 615 848
e 615 639
e 616 879
e 616 811
e 616 970
e 617 714
e 618 965
e 619 625
e 621 689
e 622 918
e 624 821
e 624 906
e 625 881
e 625 780
e 625 976
e 626 676
e 626 739
e 626 886
e 627 765
e 627 640
e 627 753
e 627 810
e 628 943
e 630 642
e 634 847
e 634 745
e 634 705
e 634 937
e 635 908
e 636 859
e 637 781
e 637 737
e 637 817
e 638 791
e 640 712
e 640 654
e 641 829
e 641 850
e 642 760
e 642 754
e 642 772
e 644 835
e 644 737
e 646 833
e 648 659
e 649 889
e 649 942
e 650 668
e 650 654
e 652 787
e 652 766
e 652 729
e 652 772
e 652 846
e 653 790
e 653 659
e 654 930
e 654 765
e 655 875
e 655 804
e 655 698
e 655 669
e 657 939
e 658 922
e 659 890
e 659 877
e 660 695
e 661 706
e 661 772
e 662 879
e 662 758
e 668 930
e 668 670
e 669 709
e 669 965
e 669 961
e 669 940
e 670 836
e 670 695
e 670 672
e 670 898
e 670 970
e 670 762
e 670 740
e 672 819
e 674 744
e 674 824
e 676 689
e 677 835
e 677 866
e 677 920
e 679 952
e 681 684
e 682 740
e 682 848
e 682 957
e 683 818
e 684 900
e 684 908
e 685 950
e 686 834
e 689 745
e 690 741
e 690 832
e 690 729
e 693 837
e 693 978
e 694 923
e 695 872
e 696 967
e 698 891
e 699 776
e 700 961
e 700 968
e 702 923
e 702 974
e 702 965
e 708 870
e 709 813
e 710 789
e 710 924
e 710 961
e 711 737
e 712 775
e 712 857
e 712 848
e 715 756
e 715 824
e 716 811
e 718 811
e 718 797
e 718 936
e 719 923
e 719 809
e 720 850
e 721 893
e 725 832
e 726 874
e 727 799
e 728 859
e 728 872
e 729 976
e 730 831
e 730 736
e 730 845
e 730 776
e 730 957
e 731 938
e 731 741
e 731 966
e 740 957
e 740 830
e 740 920
e 741 969
e 741 864
e 741 771
e 741 872
e 742 817
e 742 895
e 743 892
e 743 787
e 744 950
e 747 996
e 748 849
e 748 756
e 749 914
e 749 885
e 753 920
e 753 927
e 754 802
e 754 998
e 758 774
e 760 767
e 761 899
e 761 884
e 761 878
e 762 893
e 764 946
e 768 770
e 775 956
e 775 883
e 778 970
e 781 989
e 782 889
e 784 960
e 787 849
e 788 861
e 788 955
e 789 847
e 789 863
e 792 989
e 792 804
e 793 884
e 793 895
e 793 958
e 794 950
e 798 817
e 799 923
e 799 858
e 799 907
e 801 848
e 801 993
e 805 998
e 807 936
e 808 813
e 812 877
e 813 910
e 818 970
e 825 872
e 829 851
e 830 958
e 831 835
e 833 956
e 835 974
e 836 892
e 838 914
e 845 849
e 846 977
e 848 862
e 848 896
e 850 914
e 851 987
e 851 961
e 853 867
e 853 899
e 855 861
e 857 919
e 857 883
e 858 920
e 867 937
e 870 992
e 871 965
e 873 992
e 881 992
e 883 960
e 886 889
e 886 946
e 889 980
e 896 975
e 899 997
e 900 902
e 902 984
e 906 950
e 906 939
e 909 949
e 909 993
e 914 959
e 916 998
e 918 980
e 920 950
e 922 974
e 923 972
e 926 988
e 930 964
e 935 969
e 938 959
e 938 976
e 943 966
e 948 952
e 964 975
