txt_Ins/graph-1000-772.txt
n 1000
e 0 983
e 0 439
e 0 921
e 0 804
e 0 502
e 0 658
e 0 482
e 0 743
e 1 186
e 1 730
e 1 150
e 1 521
e 1 90
e 1 212
e 2 263
e 2 262
e 2 660
e 2 497
e 3 417
e 3 142
e 3 29
e 3 624
e 3 439
e 3 897
e 4 305
e 4 976
e 4 485
e 4 969
e 6 889
e 6 339
e 6 441
e 6 860
e 7 605
e 7 171
e 7 862
e 7 57
e 7 913
e 8 113
e 8 481
e 8 909
e 8 531
e 8 248
e 10 250
e 10 122
e 10 830
e 10 227
e 10 305
e 12 258
e 12 643
e 12 952
e 12 958
e 14 949
e 14 16
e 14 215
e 14 935
e 15 793
e 15 224
e 15 356
e 16 680
e 16 729
e 16 597
e 16 317
e 16 434
e 19 953
e 19 810
e 19 789
e 19 624
e 20 240
e 20 235
e 20 83
e 21 850
e 21 549
e 21 711
e 21 693
e 21 290
e 21 350
e 21 936
e 22 876
e 22 296
e 22 501
e 23 645
e 23 108
e 23 296
e 23 957
e 24 972
e 24 519
e 24 441
e 24 274
e 24 983
e 24 389
e 24 663
e 24 280
e 25 34
e 25 649
e 25 595
e 26 897
e 26 836
e 26 100
e 26 605
e 26 857
e 26 654
e 29 968
e 29 850
e 29 912
e 29 351
e 30 817
e 30 649
e 30 71
e 30 675
e 30 441
e 30 880
e 32 991
e 32 681
e 32 436
e 34 214
e 34 336
e 34 48
e 35 706
e 35 189
e 35 852
e 35 266
e 35 587
e 35 387
e 35 877
e 39 608
e 39 467
e 39 474
e 40 889
e 40 98
e 40 367
e 40 314
e 41 197
e 41 72
e 41 185
e 41 115
e 42 387
e 42 187
e 42 766
e 43 367
e 43 272
e 43 52
e 43 807
e 44 461
e 44 766
e 44 906
e 46 314
e 46 888
e 46 715
e 46 222
e 46 973
e 46 891
e 48 582
e 48 55
e 48 579
e 48 142
e 48 810
e 50 539
e 50 997
e 50 690
e 50 659
e 50 496
e 51 69
e 51 477
e 51 890
e 51 204
e 52 675
e 52 398
e 52 439
e 52 767
e 52 302
e 53 711
e 53 254
e 53 149
e 54 198
e 54 599
e 54 869
e 54 281
e 55 660
e 55 121
e 55 832
e 55 320
e 55 884
e 55 428
e 55 462
e 57 648
e 57 593
e 57 330
e 57 89
e 59 305
e 59 517
e 59 857
e 60 680
e 60 858
e 60 876
e 60 607
e 61 968
e 61 110
e 61 432
e 61 440
e 61 133
e 62 599
e 62 379
e 62 889
e 62 971
e 62 624
e 63 856
e 63 215
e 63 884
e 64 124
e 64 821
e 64 417
e 64 397
e 64 487
e 64 496
e 66 832
e 66 906
e 66 901
e 67 570
e 67 921
e 67 239
e 67 939
e 68 410
e 68 588
e 68 727
e 69 458
e 69 761
e 69 403
e 69 284
e 69 850
e 69 823
e 70 466
e 70 373
e 70 839
e 70 357
e 70 679
e 71 764
e 71 232
e 72 445
e 72 302
e 72 912
e 72 820
e 72 671
e 73 604
e 73 872
e 73 637
e 73 422
e 74 762
e 74 153
e 74 401
e 74 724
e 74 271
e 74 136
e 75 839
e 75 207
e 75 939
e 75 999
e 75 278
e 76 899
e 76 390
e 76 387
e 76 484
e 76 107
e 77 865
e 77 449
e 77 743
e 77 181
e 77 773
e 77 507
e 78 287
e 78 223
e 78 589
e 78 292
e 80 567
e 80 407
e 80 129
e 80 804
e 80 242
e 81 821
e 81 617
e 81 823
e 81 792
e 81 97
e 81 890
e 83 226
e 83 969
e 83 474
e 84 764
e 84 270
e 84 918
e 84 401
e 84 559
e 86 526
e 86 818
e 86 160
e 86 281
e 86 452
e 86 999
e 87 599
e 87 979
e 87 698
e 87 639
e 87 762
e 88 281
e 88 980
e 88 959
e 88 983
e 88 440
e 88 272
e 88 852
e 89 519
e 89 666
e 89 956
e 89 501
e 90 137
e 90 808
e 91 409
e 91 908
e 91 309
e 91 226
e 91 145
e 91 275
e 91 246
e 92 333
e 92 460
e 92 744
e 94 185
e 94 535
e 94 274
e 94 132
e 94 738
e 95 823
e 95 678
e 95 266
e 95 977
e 95 892
e 95 605
e 95 385
e 95 182
e 95 910
e 96 755
e 96 281
e 96 666
e 96 282
e 96 492
e 97 781
e 97 719
e 97 852
e 98 832
e 98 319
e 98 543
e 100 390
e 100 795
e 100 171
e 101 432
e 101 762
e 101 922
e 101 740
e 101 591
e 101 832
e 102 218
e 102 121
e 102 661
e 103 840
e 103 602
e 103 461
e 105 645
e 105 163
e 105 356
e 105 736
e 106 705
e 106 950
e 106 763
e 107 656
e 107 704
e 107 128
e 108 110
e 108 494
e 108 361
e 108 530
e 109 718
e 109 757
e 109 878
e 109 837
e 109 227
e 109 239
e 109 293
e 109 278
e 110 140
e 110 324
e 111 260
e 111 633
e 111 236
e 113 615
e 113 118
e 114 950
e 114 787
e 114 535
e 114 820
e 115 807
e 115 872
e 115 786
e 115 980
e 115 432
e 115 455
e 116 283
e 116 260
e 116 812
e 118 653
e 118 720
e 118 945
e 118 684
e 118 644
e 119 834
e 119 645
e 119 891
e 119 517
e 119 548
e 119 880
e 120 447
e 120 668
e 120 609
e 120 266
e 120 163
e 120 733
e 121 140
e 122 873
e 122 637
e 122 578
e 122 229
e 123 213
e 123 241
e 123 689
e 123 676
e 124 478
e 124 934
e 124 267
e 125 836
e 125 417
e 125 296
e 125 721
e 128 601
e 128 602
e 129 741
e 129 808
e 129 139
e 130 815
e 130 491
e 130 829
e 130 387
e 131 260
e 131 276
e 131 205
e 131 247
e 132 434
e 132 589
e 132 908
e 132 625
e 132 370
e 133 529
e 133 473
e 133 898
e 133 466
e 133 233
e 133 204
e 133 492
e 133 987
e 135 280
e 135 424
e 135 486
e 135 698
e 135 294
e 136 656
e 136 949
e 136 789
e 137 138
e 137 736
e 138 599
e 138 371
e 139 231
e 139 648
e 140 591
e 141 594
e 141 436
e 141 366
e 141 863
e 141 416
e 141 251
e 142 232
e 142 950
e 142 225
e 142 967
e 145 231
e 145 812
e 145 454
e 145 735
e 146 420
e 146 831
e 146 673
e 147 429
e 147 649
e 147 790
e 147 430
e 147 401
e 149 265
e 149 301
e 149 433
e 149 968
e 149 659
e 149 826
e 149 390
e 149 462
e 150 214
e 150 409
e 151 344
e 151 647
e 151 207
e 151 957
e 153 926
e 153 858
e 153 496
e 153 596
e 153 376
e 153 275
e 154 529
e 154 937
e 154 633
e 154 604
e 154 861
e 155 915
e 155 505
e 155 330
e 158 511
e 158 669
e 158 506
e 158 247
e 158 697
e 158 309
e 160 175
e 160 268
e 161 438
e 161 358
e 161 490
e 161 200
e 161 835
e 162 856
e 162 377
e 162 609
e 162 542
e 163 739
e 163 321
e 164 426
e 164 897
e 164 865
e 164 484
e 165 489
e 165 357
e 165 279
e 165 495
e 165 697
e 165 465
e 165 379
e 165 906
e 167 614
e 167 858
e 167 205
e 169 220
e 169 417
e 169 995
e 171 315
e 171 555
e 171 967
e 171 832
e 171 814
e 172 847
e 172 740
e 172 862
e 172 996
e 172 426
e 172 713
e 172 897
e 173 438
e 173 496
e 173 500
e 173 526
e 175 765
e 175 223
e 177 714
e 177 559
e 177 639
e 178 487
e 178 345
e 178 441
e 178 492
e 179 919
e 179 964
e 179 839
e 179 810
e 179 783
e 180 531
e 180 638
e 180 809
e 181 362
e 181 951
e 181 246
e 181 644
e 182 952
e 182 764
e 182 669
e 182 282
e 182 494
e 183 996
e 183 244
e 183 184
e 183 458
e 184 478
e 184 321
e 184 199
e 185 515
e 186 330
e 186 719
e 187 942
e 187 726
e 188 221
e 188 586
e 188 240
e 188 540
e 189 519
e 189 898
e 189 264
e 189 679
e 189 727
e 189 961
e 189 552
e 190 781
e 190 759
e 190 852
e 190 910
e 190 795
e 190 658
e 190 568
e 191 268
e 191 815
e 191 482
e 191 570
e 192 793
e 192 688
e 192 965
e 192 986
e 192 888
e 193 409
e 193 254
e 193 358
e 194 497
e 194 547
e 194 865
e 194 857
e 195 385
e 195 675
e 195 815
e 195 283
e 196 910
e 196 199
e 196 498
e 196 215
e 197 371
e 197 578
e 198 296
e 198 376
e 198 792
e 198 976
e 199 586
e 199 395
e 199 710
e 200 352
e 200 681
e 200 394
e 200 769
e 200 995
e 200 992
e 203 552
e 203 490
e 203 237
e 204 510
e 204 678
e 205 463
e 205 516
e 205 721
e 205 348
e 205 641
e 205 605
e 206 520
e 206 325
e 206 955
e 207 246
e 207 236
e 208 874
e 208 972
e 208 353
e 208 711
e 211 366
e 211 241
e 211 293
e 212 229
e 212 378
e 212 477
e 212 272
e 212 854
e 213 907
e 213 345
e 213 938
e 213 316
e 213 960
e 213 387
e 213 579
e 214 666
e 214 277
e 214 571
e 214 969
e 215 942
e 215 636
e 215 366
e 215 538
e 216 764
e 216 856
e 216 701
e 216 884
e 217 666
e 217 969
e 217 436
e 218 774
e 218 615
e 218 693
e 218 445
e 218 740
e 218 661
e 219 529
e 219 833
e 219 631
e 220 409
e 220 977
e 220 456
e 221 591
e 221 518
e 222 673
e 222 287
e 222 828
e 223 938
e 223 539
e 223 267
e 223 912
e 224 715
e 224 954
e 224 706
e 224 308
e 225 624
e 225 425
e 225 850
e 225 740
e 225 526
e 225 892
e 226 280
e 226 892
e 226 943
e 226 816
e 227 629
e 227 315
e 228 786
e 228 284
e 228 846
e 229 852
e 229 259
e 229 407
e 229 621
e 231 663
e 231 645
e 231 281
e 231 282
e 232 268
e 232 455
e 232 487
e 233 257
e 233 706
e 233 775
e 233 801
e 233 894
e 235 567
e 235 654
e 235 837
e 236 555
e 236 560
e 236 263
e 236 861
e 237 580
e 237 531
e 237 400
e 237 548
e 237 801
e 237 290
e 237 420
e 238 513
e 238 704
e 238 688
e 238 945
e 239 393
e 239 668
e 239 560
e 239 244
e 239 538
e 239 643
e 239 654
e 239 883
e 239 547
e 240 298
e 240 793
e 240 563
e 241 986
e 241 273
e 241 429
e 242 674
e 242 501
e 242 780
e 243 488
e 243 792
e 243 965
e 243 809
e 244 376
e 244 736
e 244 296
e 244 259
e 246 656
e 247 544
e 247 681
e 247 833
e 247 273
e 247 277
e 248 764
e 248 624
e 248 669
e 248 461
e 250 626
e 250 759
e 250 410
e 250 836
e 251 833
e 251 726
e 253 314
e 253 826
e 253 738
e 254 321
e 254 358
e 256 874
e 256 720
e 256 616
e 256 405
e 256 995
e 257 267
e 257 779
e 258 624
e 258 804
e 258 600
e 259 390
e 259 317
e 259 891
e 259 431
e 259 407
e 260 294
e 260 972
e 262 384
e 262 488
e 263 671
e 263 820
e 263 401
e 264 390
e 264 454
e 264 789
e 264 531
e 264 511
e 264 835
e 265 947
e 265 964
e 266 817
e 266 454
e 266 770
e 266 623
e 267 637
e 267 601
e 267 901
e 268 400
e 268 748
e 268 592
e 269 339
e 269 563
e 269 438
e 269 951
e 270 461
e 270 790
e 270 607
e 270 815
e 271 316
e 271 344
e 271 960
e 271 669
e 272 847
e 272 747
e 273 644
e 273 519
e 274 487
e 274 866
e 274 513
e 274 370
e 274 909
e 275 801
e 275 793
e 275 429
e 275 390
e 276 639
e 276 809
e 277 455
e 277 922
e 278 498
e 278 736
e 278 339
e 278 890
e 278 991
e 279 850
e 279 421
e 279 878
e 280 641
e 280 847
e 280 774
e 280 409
e 280 713
e 280 329
e 280 580
e 281 635
e 282 951
e 282 876
e 282 840
e 283 870
e 283 394
e 283 473
e 283 719
e 284 724
e 284 568
e 284 945
e 285 746
e 285 958
e 285 776
e 285 640
e 287 966
e 287 341
e 287 858
e 287 552
e 287 644
e 287 726
e 287 382
e 288 353
e 288 597
e 288 544
e 290 640
e 290 968
e 290 615
e 290 620
e 290 315
e 292 362
e 292 466
e 292 969
e 292 296
e 292 438
e 293 395
e 293 983
e 293 315
e 294 461
e 294 763
e 294 797
e 294 869
e 294 298
e 296 780
e 296 777
e 296 367
e 298 424
e 298 444
e 298 748
e 299 786
e 299 907
e 299 685
e 301 790
e 301 696
e 302 436
e 302 557
e 302 629
e 303 479
e 303 770
e 303 991
e 303 863
e 305 837
e 306 955
e 306 693
e 306 468
e 306 792
e 307 325
e 307 917
e 307 373
e 307 826
e 307 499
e 307 755
e 308 395
e 308 910
e 308 549
e 308 871
e 309 381
e 309 346
e 309 679
e 310 570
e 310 831
e 310 882
e 314 848
e 314 386
e 315 903
e 315 906
e 315 803
e 315 407
e 316 796
e 316 629
e 316 999
e 316 860
e 316 596
e 316 429
e 316 984
e 317 987
e 317 771
e 317 604
e 317 476
e 319 446
e 319 557
e 320 486
e 320 974
e 320 874
e 320 865
e 320 831
e 321 458
e 322 673
e 322 534
e 322 494
e 324 766
e 324 953
e 325 969
e 325 535
e 326 442
e 326 941
e 326 367
e 326 648
e 326 783
e 326 915
e 329 589
e 329 652
e 329 781
e 329 400
e 330 774
e 330 485
e 330 918
e 330 925
e 333 832
e 333 461
e 335 808
e 335 949
e 335 899
e 335 852
e 335 434
e 335 392
e 335 575
e 335 657
e 336 420
e 336 688
e 339 340
e 339 739
e 340 572
e 340 812
e 340 643
e 340 815
e 341 894
e 341 824
e 341 733
e 343 361
e 343 818
e 343 854
e 344 695
e 344 973
e 344 753
e 345 540
e 345 708
e 345 613
e 345 814
e 346 836
e 346 696
e 346 849
e 347 363
e 347 870
e 347 556
e 347 454
e 348 458
e 348 848
e 348 466
e 349 403
e 349 548
e 349 781
e 349 461
e 350 489
e 350 443
e 351 882
e 351 995
e 351 835
e 351 555
e 352 458
e 352 857
e 353 579
e 353 620
e 353 839
e 353 552
e 353 975
e 356 770
e 356 925
e 357 704
e 357 398
e 357 597
e 358 400
e 358 644
e 359 426
e 359 773
e 359 958
e 359 949
e 359 470
e 361 597
e 361 623
e 361 774
e 362 777
e 363 454
e 363 837
e 363 519
e 366 780
e 366 860
e 366 627
e 367 706
e 367 533
e 367 667
e 367 748
e 370 429
e 370 830
e 370 675
e 371 942
e 371 800
e 371 862
e 371 382
e 371 379
e 372 776
e 372 432
e 372 495
e 373 746
e 373 852
e 373 836
e 373 742
e 373 648
e 376 377
e 376 733
e 376 999
e 376 681
e 377 986
e 378 397
e 378 667
e 378 394
e 378 787
e 378 812
e 378 609
e 378 413
e 379 474
e 379 512
e 381 764
e 381 465
e 382 598
e 382 817
e 382 915
e 382 386
e 384 574
e 384 739
e 385 907
e 385 565
e 385 422
e 386 818
e 386 618
e 386 489
e 387 968
e 387 704
e 387 656
e 387 649
e 388 502
e 388 694
e 388 440
e 389 436
e 389 676
e 392 713
e 392 707
e 392 816
e 392 640
e 393 682
e 393 589
e 393 935
e 394 648
e 395 950
e 395 556
e 395 709
e 397 954
e 397 447
e 398 689
e 398 506
e 398 974
e 398 563
e 398 465
e 398 727
e 403 915
e 403 971
e 403 945
e 403 759
e 404 728
e 404 957
e 404 409
e 405 560
e 405 676
e 407 576
e 409 716
e 409 476
e 409 984
e 410 979
e 410 615
e 410 798
e 413 710
e 413 724
e 416 753
e 416 966
e 417 762
e 417 729
e 417 489
e 417 743
e 420 796
e 420 627
e 420 510
e 421 830
e 421 846
e 421 769
e 422 596
e 422 922
e 424 937
e 424 874
e 424 446
e 424 478
e 425 746
e 425 741
e 425 465
e 425 609
e 426 431
e 426 577
e 426 980
e 428 752
e 428 439
e 428 880
e 429 580
e 430 470
e 430 713
e 430 923
e 431 919
e 432 523
e 432 918
e 433 586
e 433 957
e 434 663
e 434 481
e 434 732
e 435 991
e 435 455
e 435 507
e 436 508
e 436 753
e 438 995
e 439 707
e 442 857
e 442 992
e 442 826
e 443 498
e 443 485
e 444 574
e 444 629
e 445 631
e 445 959
e 445 729
e 446 903
e 446 718
e 446 854
e 447 945
e 447 975
e 447 637
e 449 699
e 449 705
e 452 517
e 452 539
e 454 669
e 454 617
e 454 690
e 455 658
e 456 947
e 456 943
e 456 950
e 456 695
e 460 811
e 460 755
e 460 602
e 461 515
e 461 481
e 462 621
e 462 977
e 463 504
e 463 846
e 463 674
e 464 806
e 464 595
e 464 752
e 464 616
e 465 977
e 466 845
e 467 489
e 467 478
e 468 783
e 468 747
e 469 953
e 469 766
e 469 987
e 470 480
e 470 952
e 470 503
e 470 986
e 470 837
e 473 728
e 473 512
e 474 871
e 474 986
e 474 938
e 474 755
e 476 520
e 476 738
e 476 824
e 476 600
e 477 728
e 477 753
e 477 693
e 479 912
e 479 906
e 479 908
e 480 697
e 480 489
e 480 631
e 482 682
e 482 733
e 482 488
e 483 866
e 483 613
e 483 765
e 484 692
e 484 634
e 485 643
e 485 963
e 485 907
e 486 643
e 486 508
e 486 692
e 486 690
e 487 783
e 487 579
e 489 533
e 489 973
e 489 549
e 489 512
e 490 742
e 491 870
e 491 912
e 491 960
e 491 624
e 491 725
e 492 654
e 494 657
e 494 526
e 494 831
e 494 979
e 495 840
e 495 500
e 496 811
e 496 776
e 497 706
e 497 905
e 498 716
e 498 861
e 498 726
e 498 752
e 498 961
e 499 635
e 499 719
e 500 764
e 500 941
e 501 645
e 501 865
e 501 507
e 502 865
e 503 906
e 503 775
e 503 508
e 504 996
e 504 742
e 505 795
e 505 552
e 505 593
e 506 883
e 507 656
e 507 752
e 507 810
e 508 600
e 508 789
e 508 939
e 508 800
e 510 871
e 510 720
e 510 616
e 510 777
e 511 727
e 512 732
e 513 783
e 513 599
e 515 810
e 516 774
e 516 668
e 516 667
e 517 901
e 517 956
e 517 621
e 517 598
e 517 612
e 518 923
e 518 809
e 518 607
e 519 521
e 519 966
e 520 877
e 520 997
e 521 934
e 521 779
e 521 674
e 521 588
e 523 667
e 523 576
e 525 535
e 525 568
e 525 764
e 526 910
e 526 840
e 528 987
e 528 667
e 528 688
e 529 762
e 529 735
e 530 587
e 530 844
e 531 840
e 531 854
e 531 767
e 533 895
e 533 987
e 533 645
e 534 824
e 534 860
e 534 726
e 535 923
e 535 743
e 538 565
e 539 766
e 540 797
e 540 753
e 542 653
e 542 806
e 543 814
e 543 848
e 544 732
e 544 639
e 545 720
e 545 657
e 545 741
e 547 744
e 547 770
e 547 878
e 549 708
e 555 656
e 556 786
e 557 684
e 557 876
e 558 764
e 558 958
e 558 685
e 559 937
e 562 626
e 562 690
e 562 926
e 563 652
e 563 605
e 565 988
e 565 568
e 567 743
e 568 649
e 568 618
e 570 597
e 571 948
e 571 861
e 572 771
e 572 948
e 574 943
e 574 699
e 575 701
e 575 647
e 576 865
e 577 738
e 577 587
e 578 608
e 580 865
e 580 949
e 580 894
e 580 812
e 582 779
e 582 617
e 586 791
e 588 767
e 588 952
e 589 876
e 591 716
e 592 718
e 592 676
e 593 595
e 594 780
e 594 715
e 595 903
e 595 693
e 595 607
e 595 704
e 596 621
e 597 725
e 598 897
e 598 721
e 598 834
e 598 925
e 599 726
e 599 941
e 599 724
e 599 821
e 600 806
e 600 947
e 601 976
e 601 609
e 601 975
e 602 873
e 604 961
e 605 809
e 607 984
e 607 943
e 607 671
e 608 808
e 609 680
e 609 972
e 610 783
e 610 638
e 610 696
e 612 783
e 612 753
e 612 815
e 612 883
e 612 634
e 613 718
e 614 847
e 614 638
e 615 878
e 615 810
e 615 969
e 616 713
e 617 964
e 618 624
e 620 688
e 621 917
e 623 820
e 623 905
e 624 880
e 624 779
e 624 975
e 625 675
e 625 738
e 625 885
e 626 764
e 626 639
e 626 752
e 626 809
e 627 942
e 629 641
e 633 846
e 633 744
e 633 704
e 633 936
e 634 907
e 635 858
e 636 780
e 636 736
e 636 816
e 637 790
e 639 711
e 639 653
e 640 828
e 640 849
e 641 759
e 641 753
e 641 771
e 643 834
e 643 736
e 645 832
e 647 658
e 648 888
e 648 941
e 649 667
e 649 653
e 651 786
e 651 765
e 651 728
e 651 771
e 651 845
e 652 789
e 652 658
e 653 929
e 653 764
e 654 874
e 654 803
e 654 697
e 654 668
e 656 938
e 657 921
e 658 889
e 658 876
e 659 694
e 660 705
e 660 771
e 661 878
e 661 757
e 667 929
e 667 669
e 668 708
e 668 964
e 668 960
e 668 939
e 669 835
e 669 694
e 669 671
e 669 897
e 669 969
e 669 761
e 669 739
e 671 818
e 673 743
e 673 823
e 675 688
e 676 834
e 676 865
e 676 919
e 678 951
e 680 683
e 681 739
e 681 847
e 681 956
e 682 817
e 683 899
e 683 907
e 684 949
e 685 833
e 688 744
e 689 740
e 689 831
e 689 728
e 692 836
e 692 977
e 693 922
e 694 871
e 695 966
e 697 890
e 698 775
e 699 960
e 699 967
e 701 922
e 701 973
e 701 964
e 707 869
e 708 812
e 709 788
e 709 923
e 709 960
e 710 736
e 711 774
e 711 856
e 711 847
e 714 755
e 714 823
e 715 810
e 717 810
e 717 796
e 717 935
e 718 922
e 718 808
e 719 849
e 720 892
e 724 831
e 725 873
e 726 798
e 727 858
e 727 871
e 728 975
e 729 830
e 729 735
e 729 844
e 729 775
e 729 956
e 730 937
e 730 740
e 730 965
e 739 956
e 739 829
e 739 919
e 740 968
e 740 863
e 740 770
e 740 871
e 741 816
e 741 894
e 742 891
e 742 786
e 743 949
e 746 995
e 747 848
e 747 755
e 748 913
e 748 884
e 752 919
e 752 926
e 753 801
e 753 997
e 757 773
e 759 766
e 760 898
e 760 883
e 760 877
e 761 892
e 763 945
e 767 769
e 774 955
e 774 882
e 777 969
e 780 988
e 781 888
e 783 959
e 786 848
e 787 860
e 787 954
e 788 846
e 788 862
e 791 988
e 791 803
e 792 883
e 792 894
e 792 957
e 793 949
e 797 816
e 798 922
e 798 857
e 798 906
e 800 847
e 800 992
e 804 997
e 806 935
e 807 812
e 811 876
e 812 909
e 817 969
e 824 871
e 828 850
e 829 957
e 830 834
e 832 955
e 834 973
e 835 891
e 837 913
e 844 848
e 845 976
e 847 861
e 847 895
e 849 913
e 850 986
e 850 960
e 852 866
e 852 898
e 854 860
e 856 918
e 856 882
e 857 919
e 866 936
e 869 991
e 870 964
e 872 991
e 880 991
e 882 959
e 885 888
e 885 945
e 888 979
e 895 974
e 898 996
e 899 901
e 901 983
e 905 949
e 905 938
e 908 948
e 908 992
e 913 958
e 915 997
e 917 979
e 919 949
e 921 973
e 922 971
e 925 987
e 929 963
e 934 968
e 937 958
e 937 975
e 942 965
e 947 951
e 963 974
